
List of user-set options:

                                    Name   Value                used
                           compl_inf_tol = 1                     yes
                         constr_viol_tol = 1                     yes
                            dual_inf_tol = 1000                  yes
                           linear_solver = ma97                  yes
                              ma86_small = 1e-30                  no
                                  ma86_u = 0.0001                 no
                              ma97_order = best                  yes
                              ma97_small = 1e-30                 yes
                            ma97_switch1 = at_start              yes
                            ma97_switch2 = od_hd_reuse           yes
                                  ma97_u = 1e-06                 yes
                               ma97_umax = 0.5                   yes
                                max_iter = 1000                  yes
                    max_refinement_steps = 20                    yes
                    min_refinement_steps = 5                     yes
                                 mu_init = 1e-06                 yes
           mu_superlinear_decrease_power = 1.25                  yes
                   nlp_scaling_min_value = 1e-08                 yes
                        option_file_name = Preset_Case_515_pf.opt  yes
                             output_file = ./tmp/Preset_Case_515_pf.output  yes
                      print_user_options = yes                   yes
        required_infeasibility_reduction = 1                      no
                                     tol = 1e-08                 yes
                   warm_start_bound_frac = 1e-20                 yes
                   warm_start_bound_push = 1e-20                 yes
                   warm_start_init_point = yes                   yes
              warm_start_mult_bound_push = 1e-20                 yes
                warm_start_mult_init_max = 1e+40                 yes
             warm_start_slack_bound_frac = 1e-20                 yes
             warm_start_slack_bound_push = 1e-20                 yes

******************************************************************************
This program contains Ipopt, a library for large-scale nonlinear optimization.
 Ipopt is released as open source code under the Eclipse Public License (EPL).
         For more information visit http://projects.coin-or.org/Ipopt
******************************************************************************

This is Ipopt version 3.12.10, running with linear solver ma97.

Number of nonzeros in equality constraint Jacobian...:   123442
Number of nonzeros in inequality constraint Jacobian.:      213
Number of nonzeros in Lagrangian Hessian.............:    49069

Total number of variables............................:    31591
                     variables with only lower bounds:    12912
                variables with lower and upper bounds:    15130
                     variables with only upper bounds:        0
Total number of equality constraints.................:    31483
Total number of inequality constraints...............:       25
        inequality constraints with only lower bounds:        4
   inequality constraints with lower and upper bounds:        0
        inequality constraints with only upper bounds:       21

iter    objective    inf_pr   inf_du lg(mu)  ||d||  lg(rg) alpha_du alpha_pr  ls
   0 -5.3090240e+00 4.05e-03 1.02e+00  -6.0 0.00e+00    -  0.00e+00 0.00e+00   0
   1 -5.3082292e+00 5.35e-01 9.24e+00  -6.0 4.71e+05    -  6.65e-05 2.38e-04h  3
   2 -5.3118473e+00 5.35e-01 3.71e+01  -6.0 1.06e+04    -  1.62e-01 5.56e-04h  1
   3 -5.5194331e+00 1.16e+01 1.55e+03  -6.0 3.93e+03    -  1.14e-01 2.08e-01h  1
   4 -5.5675804e+00 2.40e+01 8.43e+04  -6.0 6.99e+03    -  6.34e-02 1.32e-01h  1
   5 -5.5696278e+00 2.16e+01 5.54e+04  -6.0 8.76e+00  -4.0 4.46e-01 1.01e-01h  1
   6 -5.8155277e+00 2.04e+01 4.88e+05  -6.0 1.19e+03    -  1.93e-01 1.00e+00h  1
   7 -5.6978931e+00 1.26e+01 3.07e+05  -6.0 6.46e+01  -4.5 3.80e-02 3.77e-01h  1
   8 -5.5284653e+00 7.92e-02 1.67e+03  -6.0 1.48e+01  -5.0 8.66e-01 1.00e+00h  1
   9 -5.5576552e+00 5.11e-02 2.04e+03  -6.0 5.27e+01  -5.4 5.58e-01 3.31e-01h  1
iter    objective    inf_pr   inf_du lg(mu)  ||d||  lg(rg) alpha_du alpha_pr  ls
  10 -5.6094632e+00 7.48e-01 3.70e+04  -6.0 1.20e+02  -5.9 3.75e-01 6.98e-01h  1
  11 -5.6277131e+00 6.20e-01 2.53e+04  -6.0 1.30e+02  -6.4 6.17e-01 3.59e-01h  1
  12 -5.6837589e+00 6.84e-01 1.36e+04  -6.0 2.85e+02  -6.9 2.29e-01 3.17e-01h  1
  13 -5.7381896e+00 5.80e-01 7.41e+04  -6.0 4.69e+02  -7.3 7.58e-02 2.52e-01h  1
  14 -5.7648142e+00 5.00e-01 6.19e+04  -6.0 5.84e+02  -6.9 5.03e-01 1.76e-01h  1
  15 -5.8503088e+00 9.55e-01 3.55e+04  -6.0 4.75e+02  -7.4 2.90e-01 4.36e-01h  1
  16 -5.9109197e+00 7.71e+00 2.31e+04  -6.0 1.47e+03  -7.9 3.03e-02 3.48e-01h  1
  17 -5.9043001e+00 6.25e+00 1.87e+04  -6.0 1.12e+03  -6.5 3.34e-03 1.90e-01h  1
  18r-5.9043001e+00 6.25e+00 9.99e+02   0.8 0.00e+00  -7.0 0.00e+00 4.69e-07R  4
  19r-5.9160395e+00 6.24e+00 1.61e+03   0.8 9.73e+06    -  1.06e-06 4.71e-07f  1
iter    objective    inf_pr   inf_du lg(mu)  ||d||  lg(rg) alpha_du alpha_pr  ls
  20 -6.0431286e+00 8.62e+01 2.99e+02  -6.0 1.10e+06    -  4.70e-05 5.15e-03h  1
  21 -6.0432658e+00 8.62e+01 3.01e+02  -6.0 4.49e+03  -7.5 1.89e-03 3.53e-06h  1
  22 -6.0801819e+00 8.61e+01 1.16e+03  -6.0 1.18e+04  -8.0 2.76e-03 9.45e-04f  1
  23 -6.1859453e+00 8.61e+01 1.49e+03  -6.0 9.01e+05    -  1.48e-03 6.69e-04h  1
  24 -6.1859475e+00 8.61e+01 3.02e+02  -6.0 4.29e+05    -  2.73e-03 2.99e-08h  2
  25 -6.9210164e+00 8.53e+01 2.95e+04  -6.0 4.81e+05    -  4.67e-03 8.29e-03h  1
  26 -6.9761040e+00 8.52e+01 2.94e+04  -6.0 7.33e+05    -  8.71e-03 1.46e-03h  1
  27 -7.0420753e+00 8.49e+01 2.92e+04  -6.0 4.16e+05    -  1.28e-02 3.81e-03h  1
  28 -7.0960864e+00 8.27e+01 2.80e+04  -6.0 2.19e+04    -  6.92e-03 2.61e-02h  1
  29 -7.0840733e+00 8.21e+01 2.77e+04  -6.0 1.05e+04    -  9.06e-03 7.22e-03h  1
iter    objective    inf_pr   inf_du lg(mu)  ||d||  lg(rg) alpha_du alpha_pr  ls
  30 -7.0802648e+00 8.20e+01 2.77e+04  -6.0 1.06e+04    -  2.91e-02 2.26e-03h  1
  31 -7.0333298e+00 7.98e+01 2.66e+04  -6.0 1.07e+04    -  1.91e-02 2.66e-02h  1
  32 -6.8457428e+00 7.14e+01 1.78e+04  -6.0 1.80e+04    -  1.89e-02 1.19e-01h  1
  33 -6.7708726e+00 6.74e+01 1.65e+04  -6.0 9.50e+03    -  9.61e-02 6.02e-02h  1
  34 -6.6532679e+00 6.19e+01 1.48e+04  -6.0 5.87e+03    -  5.30e-03 9.01e-02h  1
  35 -6.6416279e+00 6.14e+01 1.47e+04  -6.0 4.78e+03    -  6.55e-02 8.84e-03h  1
  36 -6.5935777e+00 5.93e+01 1.41e+04  -6.0 3.32e+03    -  5.33e-02 3.55e-02h  1
  37 -6.2814378e+00 4.90e+01 9.38e+03  -6.0 5.44e+03    -  1.37e-01 2.45e-01h  1
  38 -6.0978375e+00 4.24e+01 7.12e+03  -6.0 2.48e+03    -  2.19e-02 1.78e-01h  1
  39 -6.0023367e+00 3.85e+01 6.13e+03  -6.0 2.72e+03    -  2.27e-02 1.09e-01h  1
iter    objective    inf_pr   inf_du lg(mu)  ||d||  lg(rg) alpha_du alpha_pr  ls
  40 -5.9515773e+00 3.63e+01 5.60e+03  -6.0 1.68e+03  -7.5 5.97e-02 6.39e-02h  4
  41 -5.9399462e+00 3.57e+01 5.51e+03  -6.0 1.32e+04    -  1.90e-02 1.62e-02h  1
  42 -5.9289781e+00 3.52e+01 5.42e+03  -6.0 4.55e+03    -  9.62e-02 1.50e-02h  6
  43 -5.9236255e+00 3.50e+01 5.37e+03  -6.0 1.66e+03  -7.1 2.06e-02 7.36e-03h  7
  44 -5.9228831e+00 3.49e+01 4.81e+03  -6.0 1.03e+03  -6.7 8.58e-03 1.75e-03h  7
  45 -5.9226274e+00 3.49e+01 4.81e+03  -6.0 1.64e+03  -7.2 1.24e-03 8.81e-04h  8
  46 -5.9224377e+00 3.49e+01 4.80e+03  -6.0 1.64e+03  -6.7 2.94e-02 6.48e-04h  8
  47 -5.9373701e+00 3.28e+01 4.21e+03  -6.0 4.07e+03  -7.2 1.31e-03 6.58e-02h  1
  48 -6.0654817e+00 3.70e+01 2.36e+03  -6.0 1.02e+04  -7.7 2.46e-02 7.12e-02h  1
  49 -6.0270166e+00 3.03e+01 1.82e+03  -6.0 6.18e+03    -  2.16e-01 1.87e-01h  1
iter    objective    inf_pr   inf_du lg(mu)  ||d||  lg(rg) alpha_du alpha_pr  ls
  50 -6.0031408e+00 2.22e+01 2.10e+03  -6.0 5.21e+03    -  1.73e-01 2.68e-01h  1
  51 -5.9158611e+00 2.09e+01 9.48e+03  -6.0 2.95e+03    -  5.03e-01 8.94e-01h  1
  52 -5.9158616e+00 2.09e+01 2.40e+04  -6.0 3.73e+02    -  3.72e-02 2.81e-05h  1
  53 -5.9164156e+00 2.03e+01 4.26e+03  -6.0 5.21e+02    -  1.75e-01 2.85e-02h  1
  54 -5.9330613e+00 3.07e+00 1.33e+04  -6.0 5.60e+02    -  2.92e-02 8.48e-01h  1
  55 -5.9348523e+00 2.95e+00 1.44e+06  -6.0 9.93e+02    -  2.10e-03 7.92e-02h  1
  56 -5.9412753e+00 5.51e+00 1.14e+06  -6.0 1.84e+03    -  2.10e-01 2.13e-01h  1
  57 -5.9540247e+00 2.39e+01 3.11e+05  -6.0 1.44e+03    -  6.21e-01 7.26e-01h  1
  58 -5.9417021e+00 1.96e+01 1.39e+05  -6.0 1.26e+03    -  3.78e-02 5.54e-01h  1
  59 -5.9667141e+00 6.15e-02 8.33e+01  -6.0 3.33e+01  -5.5 6.35e-01 1.00e+00h  1
iter    objective    inf_pr   inf_du lg(mu)  ||d||  lg(rg) alpha_du alpha_pr  ls
  60 -5.9589272e+00 4.12e-02 4.65e+01  -6.0 2.92e+01  -5.9 3.40e-02 3.31e-01h  1
  61 -5.9444773e+00 1.36e-02 4.02e+00  -6.0 4.52e+01  -6.4 8.94e-01 1.00e+00H  1
  62 -5.9451497e+00 4.59e-02 1.01e+01  -6.0 3.70e+02    -  1.00e+00 7.84e-02h  4
  63 -5.9452798e+00 5.36e-02 2.24e+01  -6.0 6.45e+02    -  1.00e+00 1.58e-02h  5
  64 -5.9453870e+00 6.03e-02 2.70e+01  -6.0 6.53e+02    -  1.00e+00 1.34e-02h  5
  65 -5.9454561e+00 6.12e-02 1.98e+01  -6.0 3.88e+02    -  1.00e+00 9.65e-03h  6
  66 -5.9455936e+00 6.13e-02 2.95e+01  -6.0 1.62e+02    -  1.00e+00 2.13e-02h  6
  67 -5.9501500e+00 2.89e-01 1.09e+01  -6.0 1.43e+02    -  1.00e+00 7.52e-01h  1
  68 -5.9519079e+00 6.17e-02 5.48e+03  -6.0 3.86e+01  -6.9 8.57e-03 1.00e+00h  1
  69 -5.9518103e+00 5.93e-02 5.31e+03  -6.0 2.56e+02    -  1.00e+00 3.85e-02h  5
iter    objective    inf_pr   inf_du lg(mu)  ||d||  lg(rg) alpha_du alpha_pr  ls
  70 -5.9517121e+00 5.68e-02 5.05e+03  -6.0 2.68e+02    -  3.58e-01 4.14e-02h  5
  71 -5.9516263e+00 5.46e-02 4.89e+03  -6.0 3.16e+02    -  1.00e+00 3.95e-02h  5
  72 -5.9515330e+00 5.21e-02 4.63e+03  -6.0 3.12e+02    -  4.68e-01 4.53e-02h  5
  73 -5.9514912e+00 5.09e-02 4.56e+03  -6.0 3.56e+02    -  1.00e+00 2.24e-02h  6
  74 -5.9513935e+00 4.83e-02 4.29e+03  -6.0 3.26e+02    -  5.77e-01 5.23e-02h  5
  75 -5.9513512e+00 4.70e-02 4.21e+03  -6.0 3.76e+02    -  1.00e+00 2.56e-02h  6
  76 -5.9513058e+00 4.57e-02 4.06e+03  -6.0 3.66e+02    -  6.98e-01 2.81e-02h  6
  77 -5.9512620e+00 4.44e-02 3.97e+03  -6.0 3.83e+02    -  1.00e+00 2.86e-02h  6
  78 -5.9512189e+00 4.31e-02 3.83e+03  -6.0 3.94e+02    -  7.90e-01 2.96e-02h  6
  79 -5.9499026e+00 2.91e+00 1.41e+02  -6.0 4.14e+02    -  1.00e+00 9.63e-01w  1
iter    objective    inf_pr   inf_du lg(mu)  ||d||  lg(rg) alpha_du alpha_pr  ls
  80 -5.9502770e+00 2.40e+01 4.23e+01  -6.0 1.16e+03    -  7.41e-02 9.98e-01w  1
  81 -5.9508995e+00 1.22e+01 4.11e+00  -6.0 8.27e+02    -  1.00e+00 1.00e+00w  1
  82 -5.9511778e+00 4.18e-02 3.74e+03  -6.0 1.53e+02    -  1.00e+00 3.01e-02h  5
  83 -5.9511382e+00 4.05e-02 3.60e+03  -6.0 4.30e+02    -  8.93e-01 3.08e-02h  6
  84 -5.9511005e+00 3.93e-02 3.51e+03  -6.0 4.48e+02    -  1.00e+00 3.12e-02h  6
  85 -5.9510650e+00 3.80e-02 3.38e+03  -6.0 4.65e+02    -  1.00e+00 3.12e-02h  6
  86 -5.9496767e+00 9.33e-02 3.85e+00  -6.0 4.80e+02    -  9.91e-01 1.00e+00H  1
  87 -5.9495807e+00 2.26e-02 9.69e-01  -6.0 2.12e+01  -7.4 1.00e+00 1.00e+00H  1
  88 -5.9496642e+00 1.17e-01 9.96e-02  -6.0 1.42e+01  -7.9 1.00e+00 1.00e+00h  1
  89 -5.9496504e+00 6.70e-03 3.68e-02  -6.0 1.95e+01  -8.3 1.00e+00 1.00e+00h  1
iter    objective    inf_pr   inf_du lg(mu)  ||d||  lg(rg) alpha_du alpha_pr  ls
  90 -5.9496471e+00 2.55e-04 1.05e-02  -6.0 1.19e+01  -7.9 1.00e+00 1.00e+00H  1
  91 -5.9496475e+00 6.11e-03 4.15e-03  -6.0 5.74e+00  -7.5 1.00e+00 1.00e+00h  1
  92 -5.9496723e+00 6.05e-02 3.28e-01  -6.0 5.02e+01  -8.0 1.00e+00 1.00e+00H  1
  93 -5.9496896e+00 9.60e-02 8.02e-02  -6.0 2.46e+01  -7.5 1.00e+00 1.00e+00h  1
  94 -5.9497056e+00 1.20e-01 9.45e+00  -6.0 2.73e+02  -8.0 6.24e-01 5.31e-02h  5
  95 -5.9497774e+00 1.69e-02 2.35e-01  -6.0 4.35e+01  -7.6 1.00e+00 1.00e+00H  1
  96 -5.9498226e+00 5.62e-02 1.36e+01  -6.0 6.28e+02  -8.1 3.91e-01 4.06e-02h  4
  97 -5.9498242e+00 5.60e-02 6.35e+00  -6.0 2.35e+00  -4.9 1.00e+00 3.30e-03h  1
  98 -5.9498267e+00 1.87e-06 2.00e-05  -6.0 3.32e-01  -5.4 1.00e+00 1.00e+00f  1
  99 -5.9498290e+00 8.39e-05 1.05e-04  -6.0 1.00e+00  -5.9 1.00e+00 1.00e+00h  1
iter    objective    inf_pr   inf_du lg(mu)  ||d||  lg(rg) alpha_du alpha_pr  ls
 100 -5.9498354e+00 9.41e-04 1.04e-03  -6.0 3.05e+00  -6.4 1.00e+00 1.00e+00h  1
 101 -5.9498560e+00 9.49e-03 1.04e-02  -6.0 9.59e+00  -6.8 1.00e+00 1.00e+00h  1
 102 -5.9499314e+00 1.10e-01 1.22e-01  -6.0 3.34e+01  -7.3 1.00e+00 1.00e+00h  1
 103 -5.9504968e+00 5.06e-02 2.56e+00  -6.0 1.68e+02  -7.8 1.00e+00 1.00e+00H  1
 104 -5.9505917e+00 6.92e-02 2.57e+00  -6.0 3.44e+03  -8.3 1.33e-02 6.94e-03h  1
 105 -5.9504747e+00 5.01e-02 1.42e+01  -6.0 1.55e+01  -6.0 6.30e-01 1.00e+00h  1
 106 -5.9506373e+00 9.95e-02 5.65e+00  -6.0 4.15e+00  -5.6 7.90e-01 6.23e-01h  1
 107 -5.9505665e+00 7.62e-04 3.51e-01  -6.0 6.44e+00  -6.1 1.00e+00 1.00e+00h  1
 108 -5.9506025e+00 1.15e-04 5.31e-02  -6.0 2.84e+00  -5.7 1.00e+00 1.00e+00h  1
 109 -5.9507407e+00 3.98e-03 1.77e+00  -6.0 1.66e+01  -6.1 1.00e+00 1.00e+00h  1
iter    objective    inf_pr   inf_du lg(mu)  ||d||  lg(rg) alpha_du alpha_pr  ls
 110 -5.9509410e+00 6.56e-04 2.86e-01  -6.0 7.31e+00  -5.7 1.00e+00 1.00e+00h  1
 111 -5.9518163e+00 2.36e-02 9.58e+00  -6.0 4.22e+01  -6.2 1.00e+00 1.00e+00h  1
 112 -5.9528713e+00 2.39e-03 9.51e-01  -6.0 1.70e+01  -5.8 1.00e+00 1.00e+00h  1
 113 -5.9554796e+00 3.76e-02 1.31e+01  -6.0 7.86e+01  -6.2 1.00e+00 7.49e-01h  1
 114 -5.9693071e+00 3.15e+01 3.23e+02  -6.0 1.36e+03    -  2.96e-01 1.00e+00f  1
 115 -5.9699637e+00 3.15e+01 3.23e+02  -6.0 2.58e+04    -  4.84e-03 7.31e-04h  1
 116 -5.9574489e+00 1.19e+00 1.63e+03  -6.0 1.08e+02  -5.8 3.32e-03 1.00e+00h  1
 117 -5.9724339e+00 2.24e+00 1.18e+03  -6.0 2.41e+02  -6.3 7.22e-01 2.05e-01h  1
 118 -6.0077772e+00 2.03e+00 6.69e+02  -6.0 8.13e+03    -  2.24e-02 1.15e-01h  1
 119 -6.0098873e+00 1.98e+00 6.56e+02  -6.0 3.74e+03    -  1.17e-01 2.34e-02h  1
iter    objective    inf_pr   inf_du lg(mu)  ||d||  lg(rg) alpha_du alpha_pr  ls
 120 -6.0104587e+00 1.90e+00 6.27e+02  -6.0 4.34e+02  -6.8 2.38e-03 4.27e-02h  1
 121 -6.0130358e+00 1.89e+00 6.43e+02  -6.0 2.38e+04    -  2.87e-06 8.14e-03f  1
 122 -6.0189382e+00 1.75e+00 5.96e+02  -6.0 3.92e+03    -  2.10e-06 6.06e-02F  1
 123 -6.0198908e+00 1.69e+00 3.17e+03  -6.0 7.57e+02    -  1.00e+00 3.44e-02h  1
 124 -6.0422097e+00 1.13e+01 7.91e+02  -6.0 1.55e+03    -  7.35e-01 1.00e+00h  1
 125 -6.0385484e+00 8.73e+00 6.16e+02  -6.0 3.66e+02    -  7.92e-01 2.31e-01h  1
 126 -6.0235104e+00 2.00e-01 9.00e+01  -6.0 2.12e+02    -  1.00e+00 1.00e+00h  1
 127 -6.0228547e+00 2.45e-01 1.80e+03  -6.0 1.66e+02    -  1.73e-01 1.00e+00H  1
 128 -6.0228884e+00 2.42e-01 6.94e+04  -6.0 6.48e+02    -  4.93e-01 1.66e-02h  1
 129 -6.0235570e+00 8.64e-01 5.62e+04  -6.0 5.76e+02    -  5.35e-01 3.67e-01h  1
iter    objective    inf_pr   inf_du lg(mu)  ||d||  lg(rg) alpha_du alpha_pr  ls
 130 -6.0248008e+00 4.70e+00 2.25e+08  -6.0 5.22e+02    -  5.17e-04 1.00e+00h  1
 131 -6.0249366e+00 4.64e+00 2.22e+08  -6.0 2.28e+01  -3.6 1.43e-01 1.40e-02h  1
 132 -6.0248544e+00 4.52e+00 2.16e+08  -6.0 2.14e+00  -2.3 3.29e-02 2.51e-02h  1
 133 -6.0234576e+00 2.63e+00 1.26e+08  -6.0 1.95e+00  -2.8 5.43e-01 4.19e-01h  2
 134 -6.0233802e+00 2.54e+00 1.22e+08  -6.0 1.22e+00  -2.3 2.48e-02 3.30e-02h  5
 135 -6.0207588e+00 5.33e-04 1.95e+05  -6.0 8.25e-01  -2.8 8.66e-01 1.00e+00h  1
 136 -6.0207293e+00 3.57e-04 1.30e+05  -6.0 1.59e-01  -3.3 1.00e+00 3.35e-01h  1
 137 -6.0209079e+00 3.54e-04 1.28e+05  -6.0 1.86e+02    -  1.00e+00 9.56e-03f  1
 138 -6.0263125e+00 5.84e-01 3.63e+03  -6.0 1.92e+02    -  1.00e+00 9.72e-01h  1
 139 -6.0245923e+00 5.30e-02 1.01e+01  -6.0 2.02e+02    -  1.00e+00 1.00e+00H  1
iter    objective    inf_pr   inf_du lg(mu)  ||d||  lg(rg) alpha_du alpha_pr  ls
 140 -6.0247443e+00 2.31e-02 1.78e-01  -6.0 3.76e+01    -  1.00e+00 1.00e+00h  1
 141 -6.0247186e+00 2.50e-06 2.52e-03  -6.0 2.82e-01    -  1.00e+00 1.00e+00h  1
 142 -6.0247164e+00 1.67e-07 8.63e-02  -6.0 2.65e-01    -  1.00e+00 1.00e+00H  1
 143 -6.0247164e+00 2.32e-09 1.17e-07  -6.0 7.52e-03    -  1.00e+00 1.00e+00h  1
 144 -6.0247914e+00 1.01e-01 4.57e+01  -7.5 9.56e+01    -  9.63e-01 8.04e-01h  1
 145 -6.0247917e+00 1.79e-02 9.07e+00  -7.5 1.89e+01    -  1.00e+00 8.69e-01h  1
 146 -6.0247909e+00 9.01e-05 8.40e-03  -7.5 2.27e+00    -  1.00e+00 1.00e+00h  1
 147 -6.0247909e+00 2.84e-10 3.43e-10  -7.5 3.83e-03    -  1.00e+00 1.00e+00h  1
 148 -6.0247923e+00 1.12e-04 7.11e-01  -9.0 3.03e+00    -  9.21e-01 8.44e-01h  1
 149 -6.0247926e+00 3.85e-06 3.07e-04  -9.0 4.74e-01    -  1.00e+00 1.00e+00f  1
iter    objective    inf_pr   inf_du lg(mu)  ||d||  lg(rg) alpha_du alpha_pr  ls
 150 -6.0247926e+00 4.27e-10 4.48e-09  -9.0 1.34e-04    -  1.00e+00 1.00e+00h  1

Number of Iterations....: 150

                                   (scaled)                 (unscaled)
Objective...............:  -4.7068692004932640e+00   -6.0247925766313779e+00
Dual infeasibility......:   4.4833199994148828e-09    5.7386495992510501e-09
Constraint violation....:   4.2690872462548130e-10    4.2690872462548130e-10
Complementarity.........:   1.1440409532658321e-09    1.4643724201802650e-09
Overall NLP error.......:   4.4833199994148828e-09    5.7386495992510501e-09


Number of objective function evaluations             = 351
Number of objective gradient evaluations             = 151
Number of equality constraint evaluations            = 351
Number of inequality constraint evaluations          = 351
Number of equality constraint Jacobian evaluations   = 152
Number of inequality constraint Jacobian evaluations = 152
Number of Lagrangian Hessian evaluations             = 150
Total CPU secs in IPOPT (w/o function evaluations)   =    337.457
Total CPU secs in NLP function evaluations           =      7.254

EXIT: Optimal Solution Found.
